1 10
1 17
1 16
1 4
5 2
4 2
6 2
6 3
9 3
12 3
3 4
16 4
15 4
11 4
8 4
9 4
10 4
18 5
5 7
6 5
13 5
14 5
14 6
19 6
12 6
18 7
13 7
12 9
10 16
8 11
14 13
17 16
initial adjacencyMatrix and nodelist:
0  0  0  1  0  0  0  0  0  1  0  0  0  0  0  1  1  0  0  
0  0  0  1  1  1  0  0  0  0  0  0  0  0  0  0  0  0  0  
0  0  0  1  0  1  0  0  1  0  0  1  0  0  0  0  0  0  0  
1  1  1  0  0  0  0  1  1  1  1  0  0  0  1  1  0  0  0  
0  1  0  0  0  1  1  0  0  0  0  0  1  1  0  0  0  1  0  
0  1  1  0  1  0  0  0  0  0  0  1  0  1  0  0  0  0  1  
0  0  0  0  1  0  0  0  0  0  0  0  1  0  0  0  0  1  0  
0  0  0  1  0  0  0  0  0  0  1  0  0  0  0  0  0  0  0  
0  0  1  1  0  0  0  0  0  0  0  1  0  0  0  0  0  0  0  
1  0  0  1  0  0  0  0  0  0  0  0  0  0  0  1  0  0  0  
0  0  0  1  0  0  0  1  0  0  0  0  0  0  0  0  0  0  0  
0  0  1  0  0  1  0  0  1  0  0  0  0  0  0  0  0  0  0  
0  0  0  0  1  0  1  0  0  0  0  0  0  1  0  0  0  0  0  
0  0  0  0  1  1  0  0  0  0  0  0  1  0  0  0  0  0  0  
0  0  0  1  0  0  0  0  0  0  0  0  0  0  0  0  0  0  0  
1  0  0  1  0  0  0  0  0  1  0  0  0  0  0  0  1  0  0  
1  0  0  0  0  0  0  0  0  0  0  0  0  0  0  1  0  0  0  
0  0  0  0  1  0  1  0  0  0  0  0  0  0  0  0  0  0  0  
0  0  0  0  0  1  0  0  0  0  0  0  0  0  0  0  0  0  0  
0:0:0-->19:1:0-->15:1:0-->18:2:0-->17:2:0-->11:2:0-->8:2:0-->14:3:0-->13:3:0-->12:3:0-->10:3:0-->9:3:0-->7:3:0-->2:3:0-->16:4:0-->3:4:0-->1:4:0-->6:6:0-->5:6:0-->endlist

trial 0
19 15 18 17 11 14 12 10 2 are colored with 1
0  0  0  1  0  0  0  0  0  1  0  0  0  0  0  1  1  0  0  
0  1  0  1  1  1  0  0  0  0  0  0  0  0  0  0  0  0  0  
0  0  0  1  0  1  0  0  1  0  0  1  0  0  0  0  0  0  0  
1  1  1  0  0  0  0  1  1  1  1  0  0  0  1  1  0  0  0  
0  1  0  0  0  1  1  0  0  0  0  0  1  1  0  0  0  1  0  
0  1  1  0  1  0  0  0  0  0  0  1  0  1  0  0  0  0  1  
0  0  0  0  1  0  0  0  0  0  0  0  1  0  0  0  0  1  0  
0  0  0  1  0  0  0  0  0  0  1  0  0  0  0  0  0  0  0  
0  0  1  1  0  0  0  0  0  0  0  1  0  0  0  0  0  0  0  
1  0  0  1  0  0  0  0  0  1  0  0  0  0  0  1  0  0  0  
0  0  0  1  0  0  0  1  0  0  1  0  0  0  0  0  0  0  0  
0  0  1  0  0  1  0  0  1  0  0  1  0  0  0  0  0  0  0  
0  0  0  0  1  0  1  0  0  0  0  0  0  1  0  0  0  0  0  
0  0  0  0  1  1  0  0  0  0  0  0  1  1  0  0  0  0  0  
0  0  0  1  0  0  0  0  0  0  0  0  0  0  1  0  0  0  0  
1  0  0  1  0  0  0  0  0  1  0  0  0  0  0  0  1  0  0  
1  0  0  0  0  0  0  0  0  0  0  0  0  0  0  1  1  0  0  
0  0  0  0  1  0  1  0  0  0  0  0  0  0  0  0  0  1  0  
0  0  0  0  0  1  0  0  0  0  0  0  0  0  0  0  0  0  1  

trial 1
8 13 9 16 6 are colored with 2
0  0  0  1  0  0  0  0  0  1  0  0  0  0  0  1  1  0  0  
0  1  0  1  1  1  0  0  0  0  0  0  0  0  0  0  0  0  0  
0  0  0  1  0  1  0  0  1  0  0  1  0  0  0  0  0  0  0  
1  1  1  0  0  0  0  1  1  1  1  0  0  0  1  1  0  0  0  
0  1  0  0  0  1  1  0  0  0  0  0  1  1  0  0  0  1  0  
0  1  1  0  1  2  0  0  0  0  0  1  0  1  0  0  0  0  1  
0  0  0  0  1  0  0  0  0  0  0  0  1  0  0  0  0  1  0  
0  0  0  1  0  0  0  2  0  0  1  0  0  0  0  0  0  0  0  
0  0  1  1  0  0  0  0  2  0  0  1  0  0  0  0  0  0  0  
1  0  0  1  0  0  0  0  0  1  0  0  0  0  0  1  0  0  0  
0  0  0  1  0  0  0  1  0  0  1  0  0  0  0  0  0  0  0  
0  0  1  0  0  1  0  0  1  0  0  1  0  0  0  0  0  0  0  
0  0  0  0  1  0  1  0  0  0  0  0  2  1  0  0  0  0  0  
0  0  0  0  1  1  0  0  0  0  0  0  1  1  0  0  0  0  0  
0  0  0  1  0  0  0  0  0  0  0  0  0  0  1  0  0  0  0  
1  0  0  1  0  0  0  0  0  1  0  0  0  0  0  2  1  0  0  
1  0  0  0  0  0  0  0  0  0  0  0  0  0  0  1  1  0  0  
0  0  0  0  1  0  1  0  0  0  0  0  0  0  0  0  0  1  0  
0  0  0  0  0  1  0  0  0  0  0  0  0  0  0  0  0  0  1  

trial 2
7 3 1 are colored with 3
3  0  0  1  0  0  0  0  0  1  0  0  0  0  0  1  1  0  0  
0  1  0  1  1  1  0  0  0  0  0  0  0  0  0  0  0  0  0  
0  0  3  1  0  1  0  0  1  0  0  1  0  0  0  0  0  0  0  
1  1  1  0  0  0  0  1  1  1  1  0  0  0  1  1  0  0  0  
0  1  0  0  0  1  1  0  0  0  0  0  1  1  0  0  0  1  0  
0  1  1  0  1  2  0  0  0  0  0  1  0  1  0  0  0  0  1  
0  0  0  0  1  0  3  0  0  0  0  0  1  0  0  0  0  1  0  
0  0  0  1  0  0  0  2  0  0  1  0  0  0  0  0  0  0  0  
0  0  1  1  0  0  0  0  2  0  0  1  0  0  0  0  0  0  0  
1  0  0  1  0  0  0  0  0  1  0  0  0  0  0  1  0  0  0  
0  0  0  1  0  0  0  1  0  0  1  0  0  0  0  0  0  0  0  
0  0  1  0  0  1  0  0  1  0  0  1  0  0  0  0  0  0  0  
0  0  0  0  1  0  1  0  0  0  0  0  2  1  0  0  0  0  0  
0  0  0  0  1  1  0  0  0  0  0  0  1  1  0  0  0  0  0  
0  0  0  1  0  0  0  0  0  0  0  0  0  0  1  0  0  0  0  
1  0  0  1  0  0  0  0  0  1  0  0  0  0  0  2  1  0  0  
1  0  0  0  0  0  0  0  0  0  0  0  0  0  0  1  1  0  0  
0  0  0  0  1  0  1  0  0  0  0  0  0  0  0  0  0  1  0  
0  0  0  0  0  1  0  0  0  0  0  0  0  0  0  0  0  0  1  

trial 3
5 4 are colored with 4
3  0  0  1  0  0  0  0  0  1  0  0  0  0  0  1  1  0  0  
0  1  0  1  1  1  0  0  0  0  0  0  0  0  0  0  0  0  0  
0  0  3  1  0  1  0  0  1  0  0  1  0  0  0  0  0  0  0  
1  1  1  4  0  0  0  1  1  1  1  0  0  0  1  1  0  0  0  
0  1  0  0  4  1  1  0  0  0  0  0  1  1  0  0  0  1  0  
0  1  1  0  1  2  0  0  0  0  0  1  0  1  0  0  0  0  1  
0  0  0  0  1  0  3  0  0  0  0  0  1  0  0  0  0  1  0  
0  0  0  1  0  0  0  2  0  0  1  0  0  0  0  0  0  0  0  
0  0  1  1  0  0  0  0  2  0  0  1  0  0  0  0  0  0  0  
1  0  0  1  0  0  0  0  0  1  0  0  0  0  0  1  0  0  0  
0  0  0  1  0  0  0  1  0  0  1  0  0  0  0  0  0  0  0  
0  0  1  0  0  1  0  0  1  0  0  1  0  0  0  0  0  0  0  
0  0  0  0  1  0  1  0  0  0  0  0  2  1  0  0  0  0  0  
0  0  0  0  1  1  0  0  0  0  0  0  1  1  0  0  0  0  0  
0  0  0  1  0  0  0  0  0  0  0  0  0  0  1  0  0  0  0  
1  0  0  1  0  0  0  0  0  1  0  0  0  0  0  2  1  0  0  
1  0  0  0  0  0  0  0  0  0  0  0  0  0  0  1  1  0  0  
0  0  0  0  1  0  1  0  0  0  0  0  0  0  0  0  0  1  0  
0  0  0  0  0  1  0  0  0  0  0  0  0  0  0  0  0  0  1  

number of colors used:4
Final adjacentcyMatrix with the assign colors in the diagonal of the matrix
3  0  0  1  0  0  0  0  0  1  0  0  0  0  0  1  1  0  0  
0  1  0  1  1  1  0  0  0  0  0  0  0  0  0  0  0  0  0  
0  0  3  1  0  1  0  0  1  0  0  1  0  0  0  0  0  0  0  
1  1  1  4  0  0  0  1  1  1  1  0  0  0  1  1  0  0  0  
0  1  0  0  4  1  1  0  0  0  0  0  1  1  0  0  0  1  0  
0  1  1  0  1  2  0  0  0  0  0  1  0  1  0  0  0  0  1  
0  0  0  0  1  0  3  0  0  0  0  0  1  0  0  0  0  1  0  
0  0  0  1  0  0  0  2  0  0  1  0  0  0  0  0  0  0  0  
0  0  1  1  0  0  0  0  2  0  0  1  0  0  0  0  0  0  0  
1  0  0  1  0  0  0  0  0  1  0  0  0  0  0  1  0  0  0  
0  0  0  1  0  0  0  1  0  0  1  0  0  0  0  0  0  0  0  
0  0  1  0  0  1  0  0  1  0  0  1  0  0  0  0  0  0  0  
0  0  0  0  1  0  1  0  0  0  0  0  2  1  0  0  0  0  0  
0  0  0  0  1  1  0  0  0  0  0  0  1  1  0  0  0  0  0  
0  0  0  1  0  0  0  0  0  0  0  0  0  0  1  0  0  0  0  
1  0  0  1  0  0  0  0  0  1  0  0  0  0  0  2  1  0  0  
1  0  0  0  0  0  0  0  0  0  0  0  0  0  0  1  1  0  0  
0  0  0  0  1  0  1  0  0  0  0  0  0  0  0  0  0  1  0  
0  0  0  0  0  1  0  0  0  0  0  0  0  0  0  0  0  0  1  
0:0:0-->19:1:1-->15:1:1-->18:2:1-->17:2:1-->11:2:1-->8:2:2-->14:3:1-->13:3:2-->12:3:1-->10:3:1-->9:3:2-->7:3:3-->2:3:1-->16:4:2-->3:4:3-->1:4:3-->6:6:2-->5:6:4-->endlist
